75
64 66
10 37
94 43
24 94
37 0
56 68
84 23
2 42
8 46
94 0
81 100
37 12
18 75
30 6
43 52
29 99
34 83
20 29
87 37
80 16
69 89
17 79
10 67
67 37
78 46
59 97
24 75
11 20
88 81
83 100
37 54
44 32
3 55
55 62
25 89
80 0
72 23
40 22
15 99
27 64
73 31
55 74
53 34
52 60
32 57
97 34
91 82
11 68
62 92
2 4
4 29
46 10
14 39
63 60
2 89
31 76
6 86
9 58
81 40
91 14
70 13
50 10
8 7
30 7
85 13
62 45
5 81
94 28
35 67
20 48
59 40
65 80
63 62
50 34
98 28